Maximize

x_0_0 + x_0_1 + x_0_2 + x_0_3 + x_0_4 + x_1_0 + x_1_1 + x_1_2 + x_1_3 + x_1_4 + x_2_0 + x_2_1 + x_2_2 + x_2_3 + x_2_4 + x_3_0 + x_3_1 + x_3_2 + x_3_3 + x_3_4 + x_4_0 + x_4_1 + x_4_2 + x_4_3 + x_4_4 + x_5_0 + x_5_1 + x_5_2 + x_5_3 + x_5_4 + x_6_0 + x_6_1 + x_6_2 + x_6_3 + x_6_4 + x_7_0 + x_7_1 + x_7_2 + x_7_3 + x_7_4 + x_8_0 + x_8_1 + x_8_2 + x_8_3 + x_8_4 + x_9_0 + x_9_1 + x_9_2 + x_9_3 + x_9_4 + x_10_0 + x_10_1 + x_10_2 + x_10_3 + x_10_4 + x_11_0 + x_11_1 + x_11_2 + x_11_3 + x_11_4 + x_12_0 + x_12_1 + x_12_2 + x_12_3 + x_12_4 + x_13_0 + x_13_1 + x_13_2 + x_13_3 + x_13_4 + x_14_0 + x_14_1 + x_14_2 + x_14_3 + x_14_4 + x_15_0 + x_15_1 + x_15_2 + x_15_3 + x_15_4 + x_16_0 + x_16_1 + x_16_2 + x_16_3 + x_16_4 + x_17_0 + x_17_1 + x_17_2 + x_17_3 + x_17_4 + x_18_0 + x_18_1 + x_18_2 + x_18_3 + x_18_4 + x_19_0 + x_19_1 + x_19_2 + x_19_3 + x_19_4 + x_20_0 + x_20_1 + x_20_2 + x_20_3 + x_20_4 + x_21_0 + x_21_1 + x_21_2 + x_21_3 + x_21_4 + x_22_0 + x_22_1 + x_22_2 + x_22_3 + x_22_4 + x_23_0 + x_23_1 + x_23_2 + x_23_3 + x_23_4 + x_24_0 + x_24_1 + x_24_2 + x_24_3 + x_24_4 + x_25_0 + x_25_1 + x_25_2 + x_25_3 + x_25_4 + x_26_0 + x_26_1 + x_26_2 + x_26_3 + x_26_4 + x_27_0 + x_27_1 + x_27_2 + x_27_3 + x_27_4 + x_28_0 + x_28_1 + x_28_2 + x_28_3 + x_28_4 + x_29_0 + x_29_1 + x_29_2 + x_29_3 + x_29_4 + x_30_0 + x_30_1 + x_30_2 + x_30_3 + x_30_4 + x_31_0 + x_31_1 + x_31_2 + x_31_3 + x_31_4 + x_32_0 + x_32_1 + x_32_2 + x_32_3 + x_32_4 + x_33_0 + x_33_1 + x_33_2 + x_33_3 + x_33_4 + x_34_0 + x_34_1 + x_34_2 + x_34_3 + x_34_4 + x_35_0 + x_35_1 + x_35_2 + x_35_3 + x_35_4 + x_36_0 + x_36_1 + x_36_2 + x_36_3 + x_36_4 + x_37_0 + x_37_1 + x_37_2 + x_37_3 + x_37_4 + x_38_0 + x_38_1 + x_38_2 + x_38_3 + x_38_4 + x_39_0 + x_39_1 + x_39_2 + x_39_3 + x_39_4


Subject To

a0: x_0_0 + x_0_1 + x_0_2 + x_0_3 + x_0_4 <= 1
a1: x_1_0 + x_1_1 + x_1_2 + x_1_3 + x_1_4 <= 1
a2: x_2_0 + x_2_1 + x_2_2 + x_2_3 + x_2_4 <= 1
a3: x_3_0 + x_3_1 + x_3_2 + x_3_3 + x_3_4 <= 1
a4: x_4_0 + x_4_1 + x_4_2 + x_4_3 + x_4_4 <= 1
a5: x_5_0 + x_5_1 + x_5_2 + x_5_3 + x_5_4 <= 1
a6: x_6_0 + x_6_1 + x_6_2 + x_6_3 + x_6_4 <= 1
a7: x_7_0 + x_7_1 + x_7_2 + x_7_3 + x_7_4 <= 1
a8: x_8_0 + x_8_1 + x_8_2 + x_8_3 + x_8_4 <= 1
a9: x_9_0 + x_9_1 + x_9_2 + x_9_3 + x_9_4 <= 1
a10: x_10_0 + x_10_1 + x_10_2 + x_10_3 + x_10_4 <= 1
a11: x_11_0 + x_11_1 + x_11_2 + x_11_3 + x_11_4 <= 1
a12: x_12_0 + x_12_1 + x_12_2 + x_12_3 + x_12_4 <= 1
a13: x_13_0 + x_13_1 + x_13_2 + x_13_3 + x_13_4 <= 1
a14: x_14_0 + x_14_1 + x_14_2 + x_14_3 + x_14_4 <= 1
a15: x_15_0 + x_15_1 + x_15_2 + x_15_3 + x_15_4 <= 1
a16: x_16_0 + x_16_1 + x_16_2 + x_16_3 + x_16_4 <= 1
a17: x_17_0 + x_17_1 + x_17_2 + x_17_3 + x_17_4 <= 1
a18: x_18_0 + x_18_1 + x_18_2 + x_18_3 + x_18_4 <= 1
a19: x_19_0 + x_19_1 + x_19_2 + x_19_3 + x_19_4 <= 1
a20: x_20_0 + x_20_1 + x_20_2 + x_20_3 + x_20_4 <= 1
a21: x_21_0 + x_21_1 + x_21_2 + x_21_3 + x_21_4 <= 1
a22: x_22_0 + x_22_1 + x_22_2 + x_22_3 + x_22_4 <= 1
a23: x_23_0 + x_23_1 + x_23_2 + x_23_3 + x_23_4 <= 1
a24: x_24_0 + x_24_1 + x_24_2 + x_24_3 + x_24_4 <= 1
a25: x_25_0 + x_25_1 + x_25_2 + x_25_3 + x_25_4 <= 1
a26: x_26_0 + x_26_1 + x_26_2 + x_26_3 + x_26_4 <= 1
a27: x_27_0 + x_27_1 + x_27_2 + x_27_3 + x_27_4 <= 1
a28: x_28_0 + x_28_1 + x_28_2 + x_28_3 + x_28_4 <= 1
a29: x_29_0 + x_29_1 + x_29_2 + x_29_3 + x_29_4 <= 1
a30: x_30_0 + x_30_1 + x_30_2 + x_30_3 + x_30_4 <= 1
a31: x_31_0 + x_31_1 + x_31_2 + x_31_3 + x_31_4 <= 1
a32: x_32_0 + x_32_1 + x_32_2 + x_32_3 + x_32_4 <= 1
a33: x_33_0 + x_33_1 + x_33_2 + x_33_3 + x_33_4 <= 1
a34: x_34_0 + x_34_1 + x_34_2 + x_34_3 + x_34_4 <= 1
a35: x_35_0 + x_35_1 + x_35_2 + x_35_3 + x_35_4 <= 1
a36: x_36_0 + x_36_1 + x_36_2 + x_36_3 + x_36_4 <= 1
a37: x_37_0 + x_37_1 + x_37_2 + x_37_3 + x_37_4 <= 1
a38: x_38_0 + x_38_1 + x_38_2 + x_38_3 + x_38_4 <= 1
a39: x_39_0 + x_39_1 + x_39_2 + x_39_3 + x_39_4 <= 1
b0: 20 x_0_0 <= 15
b1: 20 x_0_1 <= 20
b2: 20 x_0_2 <= 25
b3: 20 x_0_3 <= 10
b4: 20 x_0_4 <= 5
b5: 19 x_1_0 <= 15
b6: 19 x_1_1 <= 20
b7: 19 x_1_2 <= 25
b8: 19 x_1_3 <= 10
b9: 19 x_1_4 <= 5
b10: 18 x_2_0 <= 15
b11: 18 x_2_1 <= 20
b12: 18 x_2_2 <= 25
b13: 18 x_2_3 <= 10
b14: 18 x_2_4 <= 5
b15: 17 x_3_0 <= 15
b16: 17 x_3_1 <= 20
b17: 17 x_3_2 <= 25
b18: 17 x_3_3 <= 10
b19: 17 x_3_4 <= 5
b20: 16 x_4_0 <= 15
b21: 16 x_4_1 <= 20
b22: 16 x_4_2 <= 25
b23: 16 x_4_3 <= 10
b24: 16 x_4_4 <= 5
b25: 15 x_5_0 <= 15
b26: 15 x_5_1 <= 20
b27: 15 x_5_2 <= 25
b28: 15 x_5_3 <= 10
b29: 15 x_5_4 <= 5
b30: 14 x_6_0 <= 15
b31: 14 x_6_1 <= 20
b32: 14 x_6_2 <= 25
b33: 14 x_6_3 <= 10
b34: 14 x_6_4 <= 5
b35: 13 x_7_0 <= 15
b36: 13 x_7_1 <= 20
b37: 13 x_7_2 <= 25
b38: 13 x_7_3 <= 10
b39: 13 x_7_4 <= 5
b40: 12 x_8_0 <= 15
b41: 12 x_8_1 <= 20
b42: 12 x_8_2 <= 25
b43: 12 x_8_3 <= 10
b44: 12 x_8_4 <= 5
b45: 11 x_9_0 <= 15
b46: 11 x_9_1 <= 20
b47: 11 x_9_2 <= 25
b48: 11 x_9_3 <= 10
b49: 11 x_9_4 <= 5
b50: 10 x_10_0 <= 15
b51: 10 x_10_1 <= 20
b52: 10 x_10_2 <= 25
b53: 10 x_10_3 <= 10
b54: 10 x_10_4 <= 5
b55: 9 x_11_0 <= 15
b56: 9 x_11_1 <= 20
b57: 9 x_11_2 <= 25
b58: 9 x_11_3 <= 10
b59: 9 x_11_4 <= 5
b60: 8 x_12_0 <= 15
b61: 8 x_12_1 <= 20
b62: 8 x_12_2 <= 25
b63: 8 x_12_3 <= 10
b64: 8 x_12_4 <= 5
b65: 7 x_13_0 <= 15
b66: 7 x_13_1 <= 20
b67: 7 x_13_2 <= 25
b68: 7 x_13_3 <= 10
b69: 7 x_13_4 <= 5
b70: 6 x_14_0 <= 15
b71: 6 x_14_1 <= 20
b72: 6 x_14_2 <= 25
b73: 6 x_14_3 <= 10
b74: 6 x_14_4 <= 5
b75: 20 x_15_0 <= 15
b76: 20 x_15_1 <= 20
b77: 20 x_15_2 <= 25
b78: 20 x_15_3 <= 10
b79: 20 x_15_4 <= 5
b80: 19 x_16_0 <= 15
b81: 19 x_16_1 <= 20
b82: 19 x_16_2 <= 25
b83: 19 x_16_3 <= 10
b84: 19 x_16_4 <= 5
b85: 18 x_17_0 <= 15
b86: 18 x_17_1 <= 20
b87: 18 x_17_2 <= 25
b88: 18 x_17_3 <= 10
b89: 18 x_17_4 <= 5
b90: 17 x_18_0 <= 15
b91: 17 x_18_1 <= 20
b92: 17 x_18_2 <= 25
b93: 17 x_18_3 <= 10
b94: 17 x_18_4 <= 5
b95: 16 x_19_0 <= 15
b96: 16 x_19_1 <= 20
b97: 16 x_19_2 <= 25
b98: 16 x_19_3 <= 10
b99: 16 x_19_4 <= 5
b100: 15 x_20_0 <= 15
b101: 15 x_20_1 <= 20
b102: 15 x_20_2 <= 25
b103: 15 x_20_3 <= 10
b104: 15 x_20_4 <= 5
b105: 14 x_21_0 <= 15
b106: 14 x_21_1 <= 20
b107: 14 x_21_2 <= 25
b108: 14 x_21_3 <= 10
b109: 14 x_21_4 <= 5
b110: 13 x_22_0 <= 15
b111: 13 x_22_1 <= 20
b112: 13 x_22_2 <= 25
b113: 13 x_22_3 <= 10
b114: 13 x_22_4 <= 5
b115: 12 x_23_0 <= 15
b116: 12 x_23_1 <= 20
b117: 12 x_23_2 <= 25
b118: 12 x_23_3 <= 10
b119: 12 x_23_4 <= 5
b120: 11 x_24_0 <= 15
b121: 11 x_24_1 <= 20
b122: 11 x_24_2 <= 25
b123: 11 x_24_3 <= 10
b124: 11 x_24_4 <= 5
b125: 10 x_25_0 <= 15
b126: 10 x_25_1 <= 20
b127: 10 x_25_2 <= 25
b128: 10 x_25_3 <= 10
b129: 10 x_25_4 <= 5
b130: 9 x_26_0 <= 15
b131: 9 x_26_1 <= 20
b132: 9 x_26_2 <= 25
b133: 9 x_26_3 <= 10
b134: 9 x_26_4 <= 5
b135: 8 x_27_0 <= 15
b136: 8 x_27_1 <= 20
b137: 8 x_27_2 <= 25
b138: 8 x_27_3 <= 10
b139: 8 x_27_4 <= 5
b140: 7 x_28_0 <= 15
b141: 7 x_28_1 <= 20
b142: 7 x_28_2 <= 25
b143: 7 x_28_3 <= 10
b144: 7 x_28_4 <= 5
b145: 6 x_29_0 <= 15
b146: 6 x_29_1 <= 20
b147: 6 x_29_2 <= 25
b148: 6 x_29_3 <= 10
b149: 6 x_29_4 <= 5
b150: 25 x_30_0 <= 15
b151: 25 x_30_1 <= 20
b152: 25 x_30_2 <= 25
b153: 25 x_30_3 <= 10
b154: 25 x_30_4 <= 5
b155: 24 x_31_0 <= 15
b156: 24 x_31_1 <= 20
b157: 24 x_31_2 <= 25
b158: 24 x_31_3 <= 10
b159: 24 x_31_4 <= 5
b160: 23 x_32_0 <= 15
b161: 23 x_32_1 <= 20
b162: 23 x_32_2 <= 25
b163: 23 x_32_3 <= 10
b164: 23 x_32_4 <= 5
b165: 22 x_33_0 <= 15
b166: 22 x_33_1 <= 20
b167: 22 x_33_2 <= 25
b168: 22 x_33_3 <= 10
b169: 22 x_33_4 <= 5
b170: 21 x_34_0 <= 15
b171: 21 x_34_1 <= 20
b172: 21 x_34_2 <= 25
b173: 21 x_34_3 <= 10
b174: 21 x_34_4 <= 5
b175: 20 x_35_0 <= 15
b176: 20 x_35_1 <= 20
b177: 20 x_35_2 <= 25
b178: 20 x_35_3 <= 10
b179: 20 x_35_4 <= 5
b180: 19 x_36_0 <= 15
b181: 19 x_36_1 <= 20
b182: 19 x_36_2 <= 25
b183: 19 x_36_3 <= 10
b184: 19 x_36_4 <= 5
b185: 18 x_37_0 <= 15
b186: 18 x_37_1 <= 20
b187: 18 x_37_2 <= 25
b188: 18 x_37_3 <= 10
b189: 18 x_37_4 <= 5
b190: 17 x_38_0 <= 15
b191: 17 x_38_1 <= 20
b192: 17 x_38_2 <= 25
b193: 17 x_38_3 <= 10
b194: 17 x_38_4 <= 5
b195: 16 x_39_0 <= 15
b196: 16 x_39_1 <= 20
b197: 16 x_39_2 <= 25
b198: 16 x_39_3 <= 10
b199: 16 x_39_4 <= 5
c0: 20 x_0_0 + 19 x_1_0 + 18 x_2_0 + 17 x_3_0 + 16 x_4_0 + 15 x_5_0 + 14 x_6_0 + 13 x_7_0 + 12 x_8_0 + 11 x_9_0 + 10 x_10_0 + 9 x_11_0 + 8 x_12_0 + 7 x_13_0 + 6 x_14_0 + 20 x_15_0 + 19 x_16_0 + 18 x_17_0 + 17 x_18_0 + 16 x_19_0 + 15 x_20_0 + 14 x_21_0 + 13 x_22_0 + 12 x_23_0 + 11 x_24_0 + 10 x_25_0 + 9 x_26_0 + 8 x_27_0 + 7 x_28_0 + 6 x_29_0 + 25 x_30_0 + 24 x_31_0 + 23 x_32_0 + 22 x_33_0 + 21 x_34_0 + 20 x_35_0 + 19 x_36_0 + 18 x_37_0 + 17 x_38_0 + 16 x_39_0 <= 80
c1: 20 x_0_1 + 19 x_1_1 + 18 x_2_1 + 17 x_3_1 + 16 x_4_1 + 15 x_5_1 + 14 x_6_1 + 13 x_7_1 + 12 x_8_1 + 11 x_9_1 + 10 x_10_1 + 9 x_11_1 + 8 x_12_1 + 7 x_13_1 + 6 x_14_1 + 20 x_15_1 + 19 x_16_1 + 18 x_17_1 + 17 x_18_1 + 16 x_19_1 + 15 x_20_1 + 14 x_21_1 + 13 x_22_1 + 12 x_23_1 + 11 x_24_1 + 10 x_25_1 + 9 x_26_1 + 8 x_27_1 + 7 x_28_1 + 6 x_29_1 + 25 x_30_1 + 24 x_31_1 + 23 x_32_1 + 22 x_33_1 + 21 x_34_1 + 20 x_35_1 + 19 x_36_1 + 18 x_37_1 + 17 x_38_1 + 16 x_39_1 <= 60
c2: 20 x_0_2 + 19 x_1_2 + 18 x_2_2 + 17 x_3_2 + 16 x_4_2 + 15 x_5_2 + 14 x_6_2 + 13 x_7_2 + 12 x_8_2 + 11 x_9_2 + 10 x_10_2 + 9 x_11_2 + 8 x_12_2 + 7 x_13_2 + 6 x_14_2 + 20 x_15_2 + 19 x_16_2 + 18 x_17_2 + 17 x_18_2 + 16 x_19_2 + 15 x_20_2 + 14 x_21_2 + 13 x_22_2 + 12 x_23_2 + 11 x_24_2 + 10 x_25_2 + 9 x_26_2 + 8 x_27_2 + 7 x_28_2 + 6 x_29_2 + 25 x_30_2 + 24 x_31_2 + 23 x_32_2 + 22 x_33_2 + 21 x_34_2 + 20 x_35_2 + 19 x_36_2 + 18 x_37_2 + 17 x_38_2 + 16 x_39_2 <= 50
c3: 20 x_0_3 + 19 x_1_3 + 18 x_2_3 + 17 x_3_3 + 16 x_4_3 + 15 x_5_3 + 14 x_6_3 + 13 x_7_3 + 12 x_8_3 + 11 x_9_3 + 10 x_10_3 + 9 x_11_3 + 8 x_12_3 + 7 x_13_3 + 6 x_14_3 + 20 x_15_3 + 19 x_16_3 + 18 x_17_3 + 17 x_18_3 + 16 x_19_3 + 15 x_20_3 + 14 x_21_3 + 13 x_22_3 + 12 x_23_3 + 11 x_24_3 + 10 x_25_3 + 9 x_26_3 + 8 x_27_3 + 7 x_28_3 + 6 x_29_3 + 25 x_30_3 + 24 x_31_3 + 23 x_32_3 + 22 x_33_3 + 21 x_34_3 + 20 x_35_3 + 19 x_36_3 + 18 x_37_3 + 17 x_38_3 + 16 x_39_3 <= 70
c4: 20 x_0_4 + 19 x_1_4 + 18 x_2_4 + 17 x_3_4 + 16 x_4_4 + 15 x_5_4 + 14 x_6_4 + 13 x_7_4 + 12 x_8_4 + 11 x_9_4 + 10 x_10_4 + 9 x_11_4 + 8 x_12_4 + 7 x_13_4 + 6 x_14_4 + 20 x_15_4 + 19 x_16_4 + 18 x_17_4 + 17 x_18_4 + 16 x_19_4 + 15 x_20_4 + 14 x_21_4 + 13 x_22_4 + 12 x_23_4 + 11 x_24_4 + 10 x_25_4 + 9 x_26_4 + 8 x_27_4 + 7 x_28_4 + 6 x_29_4 + 25 x_30_4 + 24 x_31_4 + 23 x_32_4 + 22 x_33_4 + 21 x_34_4 + 20 x_35_4 + 19 x_36_4 + 18 x_37_4 + 17 x_38_4 + 16 x_39_4 <= 40




Binary

x_0_0 x_0_1 x_0_2 x_0_3 x_0_4 x_1_0 x_1_1 x_1_2 x_1_3 x_1_4 x_2_0 x_2_1 x_2_2 x_2_3 x_2_4 x_3_0 x_3_1 x_3_2 x_3_3 x_3_4 x_4_0 x_4_1 x_4_2 x_4_3 x_4_4 x_5_0 x_5_1 x_5_2 x_5_3 x_5_4 x_6_0 x_6_1 x_6_2 x_6_3 x_6_4 x_7_0 x_7_1 x_7_2 x_7_3 x_7_4 x_8_0 x_8_1 x_8_2 x_8_3 x_8_4 x_9_0 x_9_1 x_9_2 x_9_3 x_9_4 x_10_0 x_10_1 x_10_2 x_10_3 x_10_4 x_11_0 x_11_1 x_11_2 x_11_3 x_11_4 x_12_0 x_12_1 x_12_2 x_12_3 x_12_4 x_13_0 x_13_1 x_13_2 x_13_3 x_13_4 x_14_0 x_14_1 x_14_2 x_14_3 x_14_4 x_15_0 x_15_1 x_15_2 x_15_3 x_15_4 x_16_0 x_16_1 x_16_2 x_16_3 x_16_4 x_17_0 x_17_1 x_17_2 x_17_3 x_17_4 x_18_0 x_18_1 x_18_2 x_18_3 x_18_4 x_19_0 x_19_1 x_19_2 x_19_3 x_19_4 x_20_0 x_20_1 x_20_2 x_20_3 x_20_4 x_21_0 x_21_1 x_21_2 x_21_3 x_21_4 x_22_0 x_22_1 x_22_2 x_22_3 x_22_4 x_23_0 x_23_1 x_23_2 x_23_3 x_23_4 x_24_0 x_24_1 x_24_2 x_24_3 x_24_4 x_25_0 x_25_1 x_25_2 x_25_3 x_25_4 x_26_0 x_26_1 x_26_2 x_26_3 x_26_4 x_27_0 x_27_1 x_27_2 x_27_3 x_27_4 x_28_0 x_28_1 x_28_2 x_28_3 x_28_4 x_29_0 x_29_1 x_29_2 x_29_3 x_29_4 x_30_0 x_30_1 x_30_2 x_30_3 x_30_4 x_31_0 x_31_1 x_31_2 x_31_3 x_31_4 x_32_0 x_32_1 x_32_2 x_32_3 x_32_4 x_33_0 x_33_1 x_33_2 x_33_3 x_33_4 x_34_0 x_34_1 x_34_2 x_34_3 x_34_4 x_35_0 x_35_1 x_35_2 x_35_3 x_35_4 x_36_0 x_36_1 x_36_2 x_36_3 x_36_4 x_37_0 x_37_1 x_37_2 x_37_3 x_37_4 x_38_0 x_38_1 x_38_2 x_38_3 x_38_4 x_39_0 x_39_1 x_39_2 x_39_3 x_39_4

 


End
